20:51:28 | INFO    | Run started | run_id: SR_SV_RD_case3_P5_eps9999 | log file: C:\Users\Asus\Documents\GitHub\logistics-model2\internal-logistics-model2\results\SR_SV_RD\case3\SR_SV_RD_case3_P5_eps9999_2026_05_04_20_51.log
20:51:28 | INFO    | Products loaded | sheet=case3 | rows=10
20:51:28 | INFO    | Data loaded | |N|=26 |Nw|=25 |K|=1 |R|=1 |P|=5 | U=25
20:51:28 | INFO    | Big-M | time=491.0 precedence=480.0 wait=465.0 load_lb=20 load_ub=20
20:51:28 | INFO    | Set parameter Username
20:51:28 | INFO    | Set parameter LicenseID to value 2811848
20:51:28 | INFO    | Academic license - for non-commercial use only - expires 2027-04-22
20:51:28 | INFO    | Objective set | primary: min route_duration | tie-break weight on wait: 0.001
20:51:28 | INFO    | Constraint (3) added | total_wait <= 9999
20:51:28 | INFO    | Constraints (4)-(9) added | route structure
20:51:28 | INFO    | Constraints (10)-(12) added | product assignment
20:51:28 | INFO    | Constraints (13)-(15) added | route timing
20:51:28 | INFO    | Constraints (16) added | time consistency
20:51:28 | INFO    | Constraints (17)-(19) added | service times
20:51:28 | INFO    | Constraints (20)-(22) added | precedence, route closure, waiting
20:51:29 | INFO    | Constraints (23)-(27) added | load propagation
20:51:29 | INFO    | Constraints (28)-(32) added | MTZ and route ordering
20:51:29 | INFO    | Set parameter TimeLimit to value 600
20:51:29 | INFO    | Set parameter MIPGap to value 0.01
20:51:29 | INFO    | Set parameter Presolve to value 2
20:51:29 | INFO    | Set parameter LogFile to value "C:\Users\Asus\Documents\GitHub\logistics-model2\internal-logistics-model2\results\SR_SV_RD\case3\result_SR_SV_RD_case3_P5_eps9999_2026_05_04_20_51.log"
20:51:29 | INFO    | Solver configured | TimeLimit=600s | MIPGap=0.01 | gurobi_log=C:\Users\Asus\Documents\GitHub\logistics-model2\internal-logistics-model2\results\SR_SV_RD\case3\result_SR_SV_RD_case3_P5_eps9999_2026_05_04_20_51.log
20:51:29 | INFO    | Optimization starting...
20:51:29 | INFO    | Gurobi Optimizer version 12.0.0 build v12.0.0rc1 (win64 - Windows 10.0 (19045.2))
20:51:29 | INFO    | 
20:51:29 | INFO    | CPU model: 12th Gen Intel(R) Core(TM) i7-12650H, instruction set [SSE2|AVX|AVX2]
20:51:29 | INFO    | Thread count: 10 physical cores, 16 logical processors, using up to 16 threads
20:51:29 | INFO    | 
20:51:29 | INFO    | Non-default parameters:
20:51:29 | INFO    | TimeLimit  600
20:51:29 | INFO    | MIPGap  0.01
20:51:29 | INFO    | Presolve  2
20:51:29 | INFO    | 
20:51:29 | INFO    | Optimize a model with 2717 rows, 813 columns and 13589 nonzeros
20:51:29 | INFO    | Model fingerprint: 0x72e9edb5
20:51:29 | INFO    | Variable types: 133 continuous, 680 integer (655 binary)
20:51:29 | INFO    | Coefficient statistics:
20:51:29 | INFO    |   Matrix range     [1e+00, 5e+02]
20:51:29 | INFO    |   Objective range  [1e-03, 1e+00]
20:51:29 | INFO    |   Bounds range     [1e+00, 3e+01]
20:51:29 | INFO    |   RHS range        [1e+00, 1e+04]
20:51:29 | INFO    | Presolve removed 2508 rows and 731 columns
20:51:29 | INFO    | Presolve time: 0.01s
20:51:29 | INFO    | Presolved: 209 rows, 82 columns, 878 nonzeros
20:51:29 | INFO    | Variable types: 24 continuous, 58 integer (51 binary)
20:51:29 | INFO    | Found heuristic solution: objective 113.2650000
20:51:29 | INFO    | Root relaxation presolve removed 17 rows and 1 columns
20:51:29 | INFO    | Root relaxation presolved: 192 rows, 81 columns, 836 nonzeros
20:51:29 | INFO    | 
20:51:29 | INFO    | 
20:51:29 | INFO    | Root relaxation: objective 8.600000e-02, 45 iterations, 0.00 seconds (0.00 work units)
20:51:29 | INFO    | 
20:51:29 | INFO    |     Nodes    |    Current Node    |     Objective Bounds      |     Work
20:51:29 | INFO    |  Expl Unexpl |  Obj  Depth IntInf | Incumbent    BestBd   Gap | It/Node Time
20:51:29 | INFO    | 
20:51:29 | INFO    |      0     0    0.08600    0   11  113.26500    0.08600   100%     -    0s
20:51:29 | INFO    | H    0     0                     113.2560000    0.08600   100%     -    0s
20:51:29 | INFO    | H    0     0                     101.1740000    0.08600   100%     -    0s
20:51:29 | INFO    | H    0     0                      96.1650000    0.08600   100%     -    0s
20:51:29 | INFO    |      0     0    0.08626    0   23   96.16500    0.08626   100%     -    0s
20:51:29 | INFO    | H    0     0                      88.1540000    0.09000   100%     -    0s
20:51:29 | INFO    |      0     0    0.09000    0   21   88.15400    0.09000   100%     -    0s
20:51:29 | INFO    |      0     0    0.09103    0   24   88.15400    0.09103   100%     -    0s
20:51:29 | INFO    | H    0     0                      86.1340000    0.09374   100%     -    0s
20:51:29 | INFO    | H    0     0                      85.1300000    0.09845   100%     -    0s
20:51:29 | INFO    |      0     0    0.09845    0   26   85.13000    0.09845   100%     -    0s
20:51:29 | INFO    |      0     0    0.14902    0   18   85.13000    0.14902   100%     -    0s
20:51:29 | INFO    |      0     0    0.15100    0   18   85.13000    0.15100   100%     -    0s
20:51:29 | INFO    |      0     0    0.15125    0   25   85.13000    0.15125   100%     -    0s
20:51:29 | INFO    |      0     0    0.15304    0   20   85.13000    0.15304   100%     -    0s
20:51:29 | INFO    |      0     0    0.15404    0   26   85.13000    0.15404   100%     -    0s
20:51:29 | INFO    |      0     0    0.15536    0   27   85.13000    0.15536   100%     -    0s
20:51:29 | INFO    |      0     0    0.15858    0   24   85.13000    0.15858   100%     -    0s
20:51:29 | INFO    |      0     0    0.15959    0   23   85.13000    0.15959   100%     -    0s
20:51:29 | INFO    |      0     0    0.16765    0   23   85.13000    0.16765   100%     -    0s
20:51:29 | INFO    |      0     0    0.16765    0   23   85.13000    0.16765   100%     -    0s
20:51:29 | INFO    |      0     0    0.16765    0   26   85.13000    0.16765   100%     -    0s
20:51:29 | INFO    |      0     0    0.16765    0   26   85.13000    0.16765   100%     -    0s
20:51:29 | INFO    |      0     0    0.16805    0   25   85.13000    0.16805   100%     -    0s
20:51:29 | INFO    |      0     0    0.16825    0   26   85.13000    0.16825   100%     -    0s
20:51:29 | INFO    |      0     0    0.16831    0   26   85.13000    0.16831   100%     -    0s
20:51:29 | INFO    |      0     0    0.16835    0   29   85.13000    0.16835   100%     -    0s
20:51:29 | INFO    |      0     0    0.16835    0   28   85.13000    0.16835   100%     -    0s
20:51:29 | INFO    |      0     0    0.16835    0   29   85.13000    0.16835   100%     -    0s
20:51:29 | INFO    |      0     0    0.17028    0   27   85.13000    0.17028   100%     -    0s
20:51:29 | INFO    |      0     0    0.17031    0   32   85.13000    0.17031   100%     -    0s
20:51:29 | INFO    |      0     0    0.17032    0   32   85.13000    0.17032   100%     -    0s
20:51:29 | INFO    |      0     0    0.17032    0   33   85.13000    0.17032   100%     -    0s
20:51:29 | INFO    |      0     0    0.17032    0   33   85.13000    0.17032   100%     -    0s
20:51:29 | INFO    |      0     0    0.17032    0   33   85.13000    0.17032   100%     -    0s
20:51:29 | INFO    |      0     2    0.17032    0   32   85.13000    0.17032   100%     -    0s
20:51:29 | INFO    | 
20:51:29 | INFO    | Cutting planes:
20:51:29 | INFO    |   Learned: 6
20:51:29 | INFO    |   Gomory: 3
20:51:29 | INFO    |   Implied bound: 18
20:51:29 | INFO    |   MIR: 127
20:51:29 | INFO    |   StrongCG: 2
20:51:29 | INFO    |   Inf proof: 2
20:51:29 | INFO    |   Zero half: 3
20:51:29 | INFO    |   RLT: 5
20:51:29 | INFO    |   Relax-and-lift: 9
20:51:29 | INFO    | 
20:51:29 | INFO    | Explored 805 nodes (6996 simplex iterations) in 0.17 seconds (0.11 work units)
20:51:29 | INFO    | Thread count was 16 (of 16 available processors)
20:51:29 | INFO    | 
20:51:29 | INFO    | Solution count 7: 85.13 86.134 88.154 ... 113.265
20:51:29 | INFO    | 
20:51:29 | INFO    | Optimal solution found (tolerance 1.00e-02)
20:51:29 | INFO    | Best objective 8.513000000000e+01, best bound 8.513000000000e+01, gap 0.0000%
20:51:29 | INFO    | Solution found | route_duration=85.00 | total_wait=130.00
20:51:29 | INFO    | Objective=85.13 | runtime=0.17s | MIP Gap=0.00%
20:51:29 | INFO    | Generating Excel output | C:\Users\Asus\Documents\GitHub\logistics-model2\internal-logistics-model2\results\SR_SV_RD\case3\result_SR_SV_RD_case3_P5_eps9999_2026_05_04_20_51.xlsx
20:51:29 | INFO    | Excel output written | 12 sheets | C:\Users\Asus\Documents\GitHub\logistics-model2\internal-logistics-model2\results\SR_SV_RD\case3\result_SR_SV_RD_case3_P5_eps9999_2026_05_04_20_51.xlsx
20:51:29 | INFO    | Master Pareto updated | 12 total rows | C:\Users\Asus\Documents\GitHub\logistics-model2\internal-logistics-model2\results\master_pareto.xlsx
20:51:29 | INFO    | Run complete | run_id=SR_SV_RD_case3_P5_eps9999
